0 0 0 100 100 100 100 100 100 100 100 100 100 100 100 100 100 100 100 100 100 100 100 100 100 100 100 100 100 100 100 100 100 100 100 100 100 100 100 100 100 100 100 100 100 100 100 100 -1 100 
0 0 80 100 100 100 180 180 180 180 180 180 180 180 180 180 180 180 180 180 180 180 180 180 180 180 180 180 180 180 180 180 180 180 180 180 180 180 180 180 180 180 180 180 180 180 180 180 -1 180 
0 60 80 100 140 160 180 180 240 240 240 240 240 240 240 240 240 240 240 240 240 240 240 240 240 240 240 240 240 240 240 240 240 240 240 240 240 240 240 240 240 240 240 240 240 -1 240 240 -1 240 
0 60 80 100 140 160 180 205 240 245 285 305 325 325 385 385 385 385 385 385 385 385 385 385 385 385 385 385 385 385 385 385 385 385 385 385 385 385 385 385 385 385 385 385 385 -1 385 385 -1 385 
0 60 80 100 140 160 180 205 240 245 285 305 325 325 385 385 385 385 385 385 400 400 460 460 460 460 460 460 460 460 460 460 460 460 460 460 460 460 460 460 460 460 460 460 460 -1 460 460 -1 460 
0 60 80 100 140 160 180 205 240 245 285 305 325 325 385 385 385 385 385 385 400 400 460 460 460 460 460 460 460 460 460 460 476 476 476 476 476 476 476 476 476 476 476 476 476 -1 476 476 -1 476 
0 60 80 100 140 160 180 205 240 245 285 305 325 325 385 385 385 385 385 385 400 400 460 460 460 460 460 460 460 460 460 460 476 476 476 476 476 476 476 476 476 476 476 476 476 -1 476 476 -1 492 
0 60 80 100 140 160 180 205 240 245 285 305 325 325 385 385 387 407 407 467 467 467 467 467 467 482 482 542 542 542 542 542 542 542 542 542 542 558 558 558 558 558 558 558 558 -1 558 558 -1 558 
0 60 80 100 140 160 180 205 240 245 285 305 325 325 385 385 387 407 407 467 467 467 467 467 467 482 482 542 542 542 542 542 542 542 542 542 542 558 558 558 558 558 558 558 558 -1 558 558 -1 568 
-1 60 80 100 140 160 180 205 240 245 285 305 325 333 385 385 398 418 418 478 478 480 500 500 560 560 560 560 560 560 575 575 635 635 635 635 635 635 635 635 635 635 651 651 651 -1 651 651 -1 651 
-1 -1 80 -1 140 160 -1 205 240 245 285 305 325 333 385 385 398 418 418 478 478 480 -1 500 560 560 560 560 560 -1 617 617 635 635 635 635 635 635 692 692 692 692 692 692 692 -1 692 692 -1 708 
-1 -1 -1 -1 -1 237 -1 297 -1 -1 -1 397 402 442 462 -1 -1 542 542 555 575 -1 -1 -1 637 -1 657 -1 717 -1 717 -1 -1 -1 774 792 792 792 -1 -1 792 849 849 849 -1 -1 -1 849 -1 849 
-1 -1 -1 -1 -1 -1 -1 -1 -1 -1 -1 -1 -1 -1 -1 -1 -1 -1 -1 -1 -1 -1 -1 -1 -1 -1 -1 -1 717 -1 717 -1 -1 -1 774 792 792 792 -1 -1 792 849 849 849 -1 -1 -1 849 -1 849 
-1 -1 -1 -1 -1 -1 -1 -1 -1 -1 -1 -1 -1 -1 -1 -1 -1 -1 -1 -1 -1 -1 -1 -1 -1 -1 -1 -1 -1 -1 -1 -1 -1 -1 785 -1 792 -1 -1 -1 842 860 860 860 -1 -1 -1 917 -1 917 
-1 -1 -1 -1 -1 -1 -1 -1 -1 -1 -1 -1 -1 -1 -1 -1 -1 -1 -1 -1 -1 -1 -1 -1 -1 -1 -1 -1 -1 -1 -1 -1 -1 -1 -1 -1 800 -1 -1 -1 -1 -1 860 875 -1 -1 -1 -1 -1 932 
-1 -1 -1 -1 -1 -1 -1 -1 -1 -1 -1 -1 -1 -1 -1 -1 -1 -1 -1 -1 -1 -1 -1 -1 -1 -1 -1 -1 -1 -1 -1 -1 -1 -1 -1 -1 -1 -1 -1 -1 -1 -1 860 -1 -1 -1 -1 -1 -1 932 
-1 -1 -1 -1 -1 -1 -1 -1 -1 -1 -1 -1 -1 -1 -1 -1 -1 -1 -1 -1 -1 -1 -1 -1 -1 -1 -1 -1 -1 -1 -1 -1 -1 -1 -1 -1 -1 -1 -1 -1 -1 -1 -1 -1 -1 -1 -1 -1 -1 932 
